Route #1: 30 24 25 26 20 21 29 28 36 35 31 19 12 13 15 64 62 65 1 63 61 34 
Route #2: 5 8 9 7 4 3 71 10 18 6 33 60 58 66 
Route #3: 11 17 16 2 14 67 38 52 44 42 48 46 43 27 23 
Route #4: 55 41 57 22 53 51 70 47 45 50 49 56 68 69 37 40 59 39 32 54 
cost 471.886
execution_time 22.301
